NAME : KROA99A
TYPE : PDTSP
DIMENSION : 99
EDGE_WEIGHT_TYPE : EUC_2D
NODE_COORD_SECTION
1 1380 939
2 2848 96
3 3510 1671
4 457 334
5 3888 666
6 984 965
7 2721 1482
8 1286 525
9 2716 1432
10 738 1325
11 1251 1832
12 2728 1698
13 3815 169
14 3683 1533
15 1247 1945
16 123 862
17 1234 1946
18 252 1240
19 611 673
20 2576 1676
21 928 1700
22 53 857
23 1807 1711
24 274 1420
25 2574 946
26 178 24
27 2678 1825
28 1795 962
29 3384 1498
30 3520 1079
31 1256 61
32 1424 1728
33 3913 192
34 3085 1528
35 2573 1969
36 463 1670
37 3875 598
38 298 1513
39 3479 821
40 2542 236
41 3955 1743
42 1323 280
43 3447 1830
44 2936 337
45 1621 1830
46 3373 1646
47 1393 1368
48 3874 1318
49 938 955
50 3022 474
51 2482 1183
52 3854 923
53 376 825
54 2519 135
55 2945 1622
56 953 268
57 2628 1479
58 2097 981
59 890 1846
60 2139 1806
61 2421 1007
62 2290 1810
63 1115 1052
64 2588 302
65 327 265
66 241 341
67 1917 687
68 2991 792
69 2573 599
70 19 674
71 3911 1673
72 872 1559
73 2863 558
74 929 1766
75 839 620
76 3893 102
77 2178 1619
78 3822 899
79 378 1048
80 1178 100
81 2599 901
82 3416 143
83 2961 1605
84 611 1384
85 3113 885
86 2597 1830
87 2586 1286
88 161 906
89 742 1025
90 1625 1651
91 1187 706
92 1787 1009
93 22 987
94 3640 43
95 3756 882
96 776 392
97 1724 1642
98 198 1810
99 3950 1558
PICKUP_AND_DELIVERY_SECTION
1 0 0 0 0 0 0
2 0 0 0 0 0 73
3 0 0 0 0 0 41
4 0 0 0 0 19 0
5 0 0 0 0 0 37
6 0 0 0 0 0 63
7 0 0 0 0 0 12
8 0 0 0 0 83 0
9 0 0 0 0 0 77
10 0 0 0 0 36 0
11 0 0 0 0 97 0
12 0 0 0 0 7 0
13 0 0 0 0 76 0
14 0 0 0 0 0 78
15 0 0 0 0 17 0
16 0 0 0 0 0 38
17 0 0 0 0 0 15
18 0 0 0 0 0 93
19 0 0 0 0 0 4
20 0 0 0 0 86 0
21 0 0 0 0 72 0
22 0 0 0 0 0 26
23 0 0 0 0 45 0
24 0 0 0 0 96 0
25 0 0 0 0 0 54
26 0 0 0 0 22 0
27 0 0 0 0 0 55
28 0 0 0 0 61 0
29 0 0 0 0 30 0
30 0 0 0 0 0 29
31 0 0 0 0 80 0
32 0 0 0 0 0 90
33 0 0 0 0 39 0
34 0 0 0 0 0 46
35 0 0 0 0 0 62
36 0 0 0 0 0 10
37 0 0 0 0 5 0
38 0 0 0 0 16 0
39 0 0 0 0 0 33
40 0 0 0 0 64 0
41 0 0 0 0 3 0
42 0 0 0 0 0 91
43 0 0 0 0 71 0
44 0 0 0 0 51 0
45 0 0 0 0 0 23
46 0 0 0 0 34 0
47 0 0 0 0 0 53
48 0 0 0 0 99 0
49 0 0 0 0 0 56
50 0 0 0 0 81 0
51 0 0 0 0 0 44
52 0 0 0 0 95 0
53 0 0 0 0 47 0
54 0 0 0 0 25 0
55 0 0 0 0 27 0
56 0 0 0 0 49 0
57 0 0 0 0 0 94
58 0 0 0 0 60 0
59 0 0 0 0 0 74
60 0 0 0 0 0 58
61 0 0 0 0 0 28
62 0 0 0 0 35 0
63 0 0 0 0 6 0
64 0 0 0 0 0 40
65 0 0 0 0 0 66
66 0 0 0 0 65 0
67 0 0 0 0 0 92
68 0 0 0 0 0 85
69 0 0 0 0 0 82
70 0 0 0 0 88 0
71 0 0 0 0 0 43
72 0 0 0 0 0 21
73 0 0 0 0 2 0
74 0 0 0 0 59 0
75 0 0 0 0 89 0
76 0 0 0 0 0 13
77 0 0 0 0 9 0
78 0 0 0 0 14 0
79 0 0 0 0 87 0
80 0 0 0 0 0 31
81 0 0 0 0 0 50
82 0 0 0 0 69 0
83 0 0 0 0 0 8
84 0 0 0 0 0 98
85 0 0 0 0 68 0
86 0 0 0 0 0 20
87 0 0 0 0 0 79
88 0 0 0 0 0 70
89 0 0 0 0 0 75
90 0 0 0 0 32 0
91 0 0 0 0 42 0
92 0 0 0 0 67 0
93 0 0 0 0 18 0
94 0 0 0 0 57 0
95 0 0 0 0 0 52
96 0 0 0 0 0 24
97 0 0 0 0 0 11
98 0 0 0 0 84 0
99 0 0 0 0 0 48
DEPOT_SECTION
1 
-1
EOF
